p edge	85	219
e	1	2
e	1	6
e	1	7
e	1	8
e	2	3
e	2	8
e	2	9
e	2	10
e	3	4
e	3	10
e	4	5
e	4	10
e	4	11
e	4	12
e	5	12
e	5	23
e	6	7
e	6	13
e	6	14
e	6	45
e	7	8
e	7	14
e	7	15
e	7	16
e	8	9
e	8	16
e	8	18
e	9	10
e	9	11
e	9	18
e	9	19
e	9	20
e	10	11
e	11	12
e	11	20
e	11	21
e	11	22
e	12	22
e	12	23
e	13	44
e	13	45
e	14	15
e	14	45
e	14	46
e	14	47
e	15	16
e	15	17
e	15	31
e	15	47
e	15	48
e	16	17
e	16	18
e	17	18
e	17	29
e	17	30
e	17	31
e	18	19
e	18	28
e	18	29
e	19	20
e	19	27
e	19	28
e	20	21
e	20	27
e	21	22
e	21	24
e	21	25
e	21	26
e	21	27
e	22	23
e	22	24
e	23	24
e	23	32
e	24	25
e	24	32
e	24	33
e	24	34
e	25	26
e	25	34
e	26	27
e	26	34
e	26	36
e	26	37
e	27	28
e	27	37
e	27	39
e	28	29
e	28	39
e	29	30
e	29	39
e	29	40
e	30	31
e	30	40
e	30	42
e	30	43
e	31	43
e	31	48
e	31	49
e	32	33
e	32	64
e	33	34
e	33	63
e	33	64
e	34	35
e	34	36
e	34	64
e	34	65
e	35	36
e	35	38
e	35	65
e	35	66
e	36	37
e	36	38
e	37	38
e	37	39
e	38	39
e	38	66
e	38	67
e	38	69
e	39	40
e	39	41
e	39	69
e	39	70
e	40	41
e	40	42
e	40	71
e	41	70
e	41	71
e	42	43
e	42	50
e	42	71
e	42	72
e	43	49
e	43	50
e	43	51
e	44	45
e	44	52
e	44	53
e	44	54
e	45	46
e	45	52
e	45	57
e	46	47
e	46	57
e	46	58
e	47	48
e	47	58
e	48	49
e	48	58
e	48	59
e	49	51
e	49	59
e	49	60
e	50	51
e	50	72
e	50	73
e	51	60
e	51	61
e	51	73
e	52	54
e	52	57
e	52	81
e	53	54
e	53	55
e	53	85
e	54	55
e	54	56
e	54	81
e	55	56
e	55	83
e	55	84
e	55	85
e	56	81
e	56	82
e	56	83
e	57	58
e	57	80
e	57	81
e	58	59
e	58	80
e	59	60
e	59	61
e	59	79
e	59	80
e	60	61
e	61	62
e	61	73
e	61	76
e	61	78
e	61	79
e	62	73
e	62	74
e	62	76
e	62	78
e	63	64
e	64	65
e	65	66
e	66	67
e	67	68
e	67	69
e	68	69
e	69	70
e	70	71
e	71	72
e	72	73
e	73	74
e	74	75
e	74	76
e	75	76
e	76	77
e	76	78
e	77	78
e	78	79
e	79	80
e	80	81
e	81	82
e	82	83
e	83	84
e	84	85
